# single polymer chain into pore with metaD
# Input script parameters adapted from "lammps.sandia.gov/bench.html#chain"

clear
units		lj
processors      * * *
dimension	3
boundary 	p p p 
atom_style 	atomic 

region		box block -12.5 12.5 -12.5 12.5 -26 25 units box
create_box      1 box #bond/types 1 extra/bond/per/atom 1

region          tube cylinder z 0.0 0.0 {R} -25 -{R} side in units box open 2

create_atoms 	1 random 1 2000 NULL
mass		* 1.0

group		poly type 1

neighbor 	4.0  bin
neigh_modify	every 1 delay 1
comm_modify  	cutoff 1.9

pair_style      lj/cut 2.5
pair_coeff      1 1 1.0 1.0 1.122462
pair_modify     shift yes

fix 		1 all nve
fix 		2 all langevin 1.0 1.0 10.0 {RAND1}
#fix             4 all wall/lj93 zlo EDGE {EPS} 1.0 2.5 units box pbc yes
fix             5 all wall/funnel zlo 0.0 {EPS} 1.00 2.5 0.0 0.0 {D} {R} -{R} units box pbc yes
fix             6 all wall/region tube lj93 {EPS} 1.00 2.5
fix_modify      2 energy no
fix_modify      5 energy yes
fix_modify      6 energy yes

fix             rec all recenter 0.50 0 {h} units box

thermo				100000
thermo_style 			custom step temp press ke pe epair ebond etotal fmax fnorm
thermo_modify			flush yes

timestep	0.001
run 		1000000

compute         1 poly reduce sum fx
compute         2 poly reduce sum fy
compute         3 poly reduce sum fz
compute         4 poly com
compute 	pef all pe fix

fix     at1 all ave/time 100 100 10000 c_4[3] c_1 c_2 c_3 file comz_forcez_EPS{EPS}.txt
fix     at2 all ave/time 100 100 10000 c_4[3] c_pef file comz_etotal_EPS{EPS}.txt

dump			2 poly custom 100000 poly.lammpstrj.gz id type x y z ix iy iz fx fy fz
dump_modify		2 sort id pbc yes 

run		100000000
